User:   rasmus@AsusN550
Date:   Thu Oct 11 11:10:22 2018
Arch:   x86_64
Pid:    7245
Python: 3.6.3
gpaw:   /home/rasmus/anaconda3/lib/python3.6/site-packages/gpaw
_gpaw:  /home/rasmus/anaconda3/lib/python3.6/site-packages/
        _gpaw.cpython-36m-x86_64-linux-gnu.so
ase:    /home/rasmus/.local/lib/python3.6/site-packages/ase (version 3.16.2)
numpy:  /home/rasmus/.local/lib/python3.6/site-packages/numpy (version 1.15.1)
scipy:  /home/rasmus/.local/lib/python3.6/site-packages/scipy (version 1.1.0)
units:  Angstrom and eV
cores:  1

Input parameters:
  kpts: [9 9 9]
  mode: {ecut: 600.0,
         name: pw}
  nbands: -2
  occupations: {name: fermi-dirac,
                width: 0.1}
  xc: PBE

System changes: positions, numbers, cell, pbc, initial_charges, initial_magmoms

Initialize ...

Cu-setup:
  name: Copper
  id: f1c4d45d90492f1bbfdcb091e8418fdf
  Z: 29
  valence: 11
  core: 18
  charge: 0.0
  file: /usr/share/gpaw-setups/Cu.PBE.gz
  cutoffs: 1.06(comp), 2.06(filt), 2.43(core), lmax=2
  valence states:
                energy  radius
    4s(1.00)    -4.609   1.164
    4p(0.00)    -0.698   1.164
    3d(10.00)    -5.039   1.058
    *s          22.603   1.164
    *p          26.513   1.164
    *d          22.172   1.058

  Using partial waves for Cu as LCAO basis

Reference energy: -45021.451841

Spin-paired calculation

Occupation numbers:
  Fermi-Dirac: width=0.1000 eV

Convergence criteria:
  Maximum total energy change: 0.0005 eV / electron
  Maximum integral of absolute density change: 0.0001 electrons
  Maximum integral of absolute eigenstate change: 4e-08 eV^2
  Maximum number of iterations: 333

Symmetries present (total): 4

  ( 1  0  0)  ( 1  0  0)  (-1  0  0)  (-1  0  0)
  ( 1  0 -1)  ( 0  1  0)  ( 0  0 -1)  (-1  1  0)
  ( 1 -1  0)  ( 0  0  1)  ( 0 -1  0)  (-1  0  1)

729 k-points: 9 x 9 x 9 Monkhorst-Pack grid
125 k-points in the irreducible part of the Brillouin zone
       k-points in crystal coordinates                weights
   0:     0.00000000    0.00000000    0.00000000          1/729
   1:     0.00000000    0.11111111   -0.11111111          2/729
   2:     0.00000000    0.11111111    0.00000000          4/729
   3:     0.00000000    0.11111111    0.11111111          2/729
   4:     0.00000000    0.22222222   -0.22222222          2/729
   5:     0.00000000    0.22222222   -0.11111111          4/729
   6:     0.00000000    0.22222222    0.00000000          4/729
   7:     0.00000000    0.22222222    0.11111111          4/729
   8:     0.00000000    0.22222222    0.22222222          2/729
   9:     0.00000000    0.33333333   -0.33333333          2/729
          ...
 124:     0.44444444    0.44444444    0.44444444          4/729

Wave functions: Plane wave expansion
  Cutoff energy: 600.000 eV
  Number of coefficients (min, max): 25241, 25509
  Pulay-stress correction: 0.000000 eV/Ang^3 (de/decut=0.000000)
  Using FFTW library
  ScaLapack parameters: grid=1x1, blocksize=None

Eigensolver
   Davidson(niter=1, smin=None, normalize=True)

Densities:
  Coarse grid: 48*48*48 grid
  Fine grid: 96*96*96 grid
  Total Charge: 0.000000

Density mixing:
  Method: separate
  Backend: pulay
  Linear mixing parameter: 0.05
  Mixing with 5 old densities
  Damping of long wave oscillations: 50

Hamiltonian:
  XC and Coulomb potentials evaluated on a 96*96*96 grid
  Using the PBE Exchange-Correlation functional

Total number of cores used: 1

Number of atoms: 1
Number of atomic orbitals: 9
Number of bands in calculation: 7
Bands to converge: occupied states only
Number of valence electrons: 11

... initialized

Initializing position-dependent things.

Density initialized from atomic densities
Creating initial wave functions:
  7 bands from LCAO basis set

       Cu

Positions:
   0 Cu     7.240000    5.430000    9.050000    ( 0.0000,  0.0000,  0.0000)

Unit cell:
           periodic     x           y           z      points  spacing
  1. axis:    yes    0.000000    7.240000    7.240000    48     0.1742
  2. axis:    yes    7.240000    0.000000    7.240000    48     0.1742
  3. axis:    yes    7.240000    7.240000    0.000000    48     0.1742

  Lengths:  10.238906  10.238906  10.238906
  Angles:   60.000000  60.000000  60.000000

Effective grid spacing dv^(1/3) = 0.1900

                     log10-error:    total        iterations:
           time      wfs    density  energy       fermi  poisson
iter:   1  11:11:00  +0.25   +inf     0.004964    4
iter:   2  11:11:23  -1.36   +inf     0.001291    3
iter:   3  11:11:47  -1.99   +inf     0.000400    2
iter:   4  11:12:15  -1.05  -1.73    -0.009431    4
iter:   5  11:12:39  -2.80  -2.19    -0.013638    3
iter:   6  11:13:03  -3.03  -2.36    -0.020831    3
iter:   7  11:13:30  -2.47  -2.47    -0.024572    4
iter:   8  11:13:58  -2.96  -2.65    -0.025519    3
iter:   9  11:14:27  -2.37  -2.56    -0.022658    3
iter:  10  11:14:54  -2.19  -2.69    -0.027436    3
iter:  11  11:15:19  -0.07  -2.49    -0.045473    5
iter:  12  11:15:42  -1.02  -1.35    -0.019954    4
iter:  13  11:16:05  -0.50  -1.48    -0.018063    4
iter:  14  11:16:28  -2.52  -3.02    -0.022131    3
iter:  15  11:16:53  -1.97  -2.82    -0.018829    3
iter:  16  11:17:21  -2.44  -3.09    -0.014146    3
iter:  17  11:17:46  -2.12  -2.56    -0.017714    3
iter:  18  11:18:12  -3.17  -3.08    -0.018790    3
iter:  19  11:18:38  -3.85  -3.24    -0.018637    2
iter:  20  11:19:03  -4.65  -3.38    -0.019110    3
iter:  21  11:19:30  -5.14  -3.37    -0.019068    2
iter:  22  11:19:56  -3.39  -3.39    -0.019746    3
iter:  23  11:20:21  -4.80  -3.53    -0.019734    2
iter:  24  11:20:48  -5.16  -3.58    -0.019416    2
iter:  25  11:21:15  -4.83  -3.64    -0.019174    2
iter:  26  11:21:39  -5.03  -3.70    -0.019113    2
iter:  27  11:22:06  -5.50  -3.66    -0.019072    2
iter:  28  11:22:32  -5.06  -3.84    -0.018922    2
iter:  29  11:22:56  -4.77  -3.93    -0.019066    2
iter:  30  11:23:23  -5.71  -3.85    -0.019062    2
iter:  31  11:23:47  -5.03  -3.96    -0.019024    2
iter:  32  11:24:09  -6.67  -4.27    -0.019020    2
iter:  33  11:24:36  -7.40  -4.28    -0.019036    2
iter:  34  11:25:00  -6.76  -4.33    -0.019072    2
iter:  35  11:25:25  -5.33  -4.40    -0.018979    2
iter:  36  11:25:52  -5.56  -4.29    -0.019042    2
iter:  37  11:26:18  -7.25  -4.61    -0.019064    2
iter:  38  11:26:41  -6.60  -4.62    -0.019059    2
iter:  39  11:27:03  -7.48  -4.93    -0.019062    2

Converged after 39 iterations.

Dipole moment: (0.000000, -0.153380, 0.153380) |e|*Ang

Energy contributions relative to reference atoms: (reference = -45021.451841)

Kinetic:         +0.333243
Potential:       -0.443485
External:        +0.000000
XC:              +0.211019
Entropy (-ST):   -0.165824
Local:           -0.036926
Free energy:     -0.101973
Extrapolated:    -0.019062

Fermi level: -4.43122

Warning: Showing only first 2 kpts
 Kpt  Band  Eigenvalues  Occupancy
  0     3     -4.97709    0.00273
  0     4     -4.97704    0.00273
  0     5     -4.44367    0.00146
  0     6     -0.37085    0.00000

  1     3     -4.97708    0.00546
  1     4     -4.97703    0.00546
  1     5     -4.44250    0.00290
  1     6     -0.38505    0.00000

Writing to Cu-fcc.gpw (mode='')