User:   rasmus@AsusN550
Date:   Thu Sep 13 14:43:49 2018
Arch:   x86_64
Pid:    14418
Python: 3.6.3
gpaw:   /home/rasmus/anaconda3/lib/python3.6/site-packages/gpaw
_gpaw:  /home/rasmus/anaconda3/lib/python3.6/site-packages/
        _gpaw.cpython-36m-x86_64-linux-gnu.so
ase:    /home/rasmus/.local/lib/python3.6/site-packages/ase (version 3.16.2)
numpy:  /home/rasmus/.local/lib/python3.6/site-packages/numpy (version 1.15.1)
scipy:  /home/rasmus/.local/lib/python3.6/site-packages/scipy (version 1.1.0)
units:  Angstrom and eV
cores:  1

Input parameters:
  kpts: [8 8 8]
  mode: {ecut: 340.0,
         name: pw}
  nbands: -2
  occupations: {name: fermi-dirac,
                width: 0.1}
  xc: PBE

System changes: positions, numbers, cell, pbc, initial_charges, initial_magmoms

Initialize ...

Cu-setup:
  name: Copper
  id: f1c4d45d90492f1bbfdcb091e8418fdf
  Z: 29
  valence: 11
  core: 18
  charge: 0.0
  file: /usr/share/gpaw-setups/Cu.PBE.gz
  cutoffs: 1.06(comp), 2.06(filt), 2.43(core), lmax=2
  valence states:
                energy  radius
    4s(1.00)    -4.609   1.164
    4p(0.00)    -0.698   1.164
    3d(10.00)    -5.039   1.058
    *s          22.603   1.164
    *p          26.513   1.164
    *d          22.172   1.058

  Using partial waves for Cu as LCAO basis

Reference energy: -90042.903682

Spin-paired calculation

Occupation numbers:
  Fermi-Dirac: width=0.1000 eV

Convergence criteria:
  Maximum total energy change: 0.0005 eV / electron
  Maximum integral of absolute density change: 0.0001 electrons
  Maximum integral of absolute eigenstate change: 4e-08 eV^2
  Maximum number of iterations: 333

Symmetries present (total): 4

  ( 1  0  0)  ( 0  0  1)  ( 0  0 -1)  (-1  0  0)
  ( 0  1  0)  ( 0  1  0)  ( 0 -1  0)  ( 0 -1  0)
  ( 0  0  1)  ( 1  0  0)  (-1  0  0)  ( 0  0 -1)

512 k-points: 8 x 8 x 8 Monkhorst-Pack grid
144 k-points in the irreducible part of the Brillouin zone
       k-points in crystal coordinates                weights
   0:     0.06250000   -0.43750000    0.06250000          2/512
   1:     0.06250000   -0.31250000    0.06250000          2/512
   2:     0.06250000   -0.18750000    0.06250000          2/512
   3:     0.06250000   -0.06250000    0.06250000          2/512
   4:     0.06250000    0.06250000   -0.06250000          4/512
   5:     0.06250000    0.06250000    0.06250000          2/512
   6:     0.06250000    0.18750000   -0.06250000          4/512
   7:     0.06250000    0.18750000    0.06250000          2/512
   8:     0.06250000    0.31250000   -0.06250000          4/512
   9:     0.06250000    0.31250000    0.06250000          2/512
          ...
 143:     0.43750000    0.43750000    0.43750000          2/512

Wave functions: Plane wave expansion
  Cutoff energy: 340.000 eV
  Number of coefficients (min, max): 327, 349
  Pulay-stress correction: 0.000000 eV/Ang^3 (de/decut=0.000000)
  Using FFTW library
  ScaLapack parameters: grid=1x1, blocksize=None

Eigensolver
   Davidson(niter=1, smin=None, normalize=True)

Densities:
  Coarse grid: 9*18*9 grid
  Fine grid: 18*36*18 grid
  Total Charge: 0.000000

Density mixing:
  Method: separate
  Backend: pulay
  Linear mixing parameter: 0.05
  Mixing with 5 old densities
  Damping of long wave oscillations: 50

Hamiltonian:
  XC and Coulomb potentials evaluated on a 18*36*18 grid
  Using the PBE Exchange-Correlation functional

Total number of cores used: 1

Number of atoms: 2
Number of atomic orbitals: 18
Number of bands in calculation: 13
Bands to converge: occupied states only
Number of valence electrons: 22

... initialized

Initializing position-dependent things.

Density initialized from atomic densities
Creating initial wave functions:
  13 bands from LCAO basis set

         Cu

       Cu

Positions:
   0 Cu     0.000000    0.000000    0.000000    ( 0.0000,  0.0000,  0.0000)
   1 Cu     0.000000    1.810000    1.810000    ( 0.0000,  0.0000,  0.0000)

Unit cell:
           periodic     x           y           z      points  spacing
  1. axis:    yes    1.810000    1.810000    0.000000     9     0.2322
  2. axis:    yes    0.000000    3.620000    3.620000    18     0.2322
  3. axis:    yes    1.810000    0.000000    1.810000     9     0.2322

  Lengths:   2.559727   5.119453   2.559727
  Angles:   60.000000  60.000000  60.000000

Effective grid spacing dv^(1/3) = 0.2534

                     log10-error:    total        iterations:
           time      wfs    density  energy       fermi  poisson
iter:   1  14:43:57  +1.02   +inf    -8.538184    3
iter:   2  14:44:00  +0.21   +inf    -8.663872    2
iter:   3  14:44:02  -0.72   +inf    -8.693643    2
iter:   4  14:44:06  -0.02  -1.17    -7.958563    29
iter:   5  14:44:08  +0.87  -1.25    -6.805484    30
iter:   6  14:44:11  -0.60  -1.73    -6.915931    4
iter:   7  14:44:14  +0.12  -1.87    -6.808668    29
iter:   8  14:44:17  -1.47  -2.49    -6.809329    3
iter:   9  14:44:19  -2.84  -2.73    -6.810183    3
iter:  10  14:44:22  -3.13  -2.61    -6.809438    3
iter:  11  14:44:25  -1.90  -2.63    -6.808037    3
iter:  12  14:44:27  -3.28  -3.38    -6.808081    2
iter:  13  14:44:30  -4.00  -3.47    -6.808088    2
iter:  14  14:44:32  -3.33  -3.31    -6.808009    2
iter:  15  14:44:35  -4.29  -3.64    -6.808036    2
iter:  16  14:44:39  -5.50  -3.71    -6.808027    2
iter:  17  14:44:42  -3.55  -3.55    -6.808129    2
iter:  18  14:44:44  -3.00  -3.29    -6.808008    3
iter:  19  14:44:47  -4.72  -4.11    -6.808009    2
iter:  20  14:44:50  -5.63  -4.15    -6.808010    2
iter:  21  14:44:53  -4.73  -4.25    -6.808010    2
iter:  22  14:44:55  -5.17  -4.20    -6.808009    2
iter:  23  14:44:58  -5.80  -4.56    -6.808009    2
iter:  24  14:45:00  -6.74  -4.74    -6.808009    2
iter:  25  14:45:03  -7.04  -4.78    -6.808009    2
iter:  26  14:45:06  -7.43  -4.84    -6.808009    2

Converged after 26 iterations.

Dipole moment: (-0.000000, -0.000000, -0.000000) |e|*Ang

Energy contributions relative to reference atoms: (reference = -90042.903682)

Kinetic:        -25.344638
Potential:      +19.436946
External:        +0.000000
XC:              -1.674056
Entropy (-ST):   -0.018234
Local:           +0.782855
Free energy:     -6.817126
Extrapolated:    -6.808009

Fermi level: 8.03594

Warning: Showing only first 2 kpts
 Kpt  Band  Eigenvalues  Occupancy
  0     9      5.88114    0.00781
  0    10      6.04128    0.00781
  0    11      6.04709    0.00781
  0    12     20.01227    0.00000

  1     9      5.92761    0.00781
  1    10      5.93210    0.00781
  1    11      6.23476    0.00781
  1    12     18.06546    0.00000

Writing to Cu-fcc.gpw (mode='')