User:   rasmus@AsusN550
Date:   Fri Sep 14 09:35:01 2018
Arch:   x86_64
Pid:    6385
Python: 3.6.3
gpaw:   /home/rasmus/anaconda3/lib/python3.6/site-packages/gpaw
_gpaw:  /home/rasmus/anaconda3/lib/python3.6/site-packages/
        _gpaw.cpython-36m-x86_64-linux-gnu.so
ase:    /home/rasmus/.local/lib/python3.6/site-packages/ase (version 3.16.2)
numpy:  /home/rasmus/.local/lib/python3.6/site-packages/numpy (version 1.15.1)
scipy:  /home/rasmus/.local/lib/python3.6/site-packages/scipy (version 1.1.0)
units:  Angstrom and eV
cores:  1

Input parameters:
  kpts: [8 8 8]
  mode: {ecut: 1100.0,
         name: pw}
  nbands: -2
  occupations: {name: fermi-dirac,
                width: 0.1}
  xc: PBE

System changes: positions, numbers, cell, pbc, initial_charges, initial_magmoms

Initialize ...

Cu-setup:
  name: Copper
  id: f1c4d45d90492f1bbfdcb091e8418fdf
  Z: 29
  valence: 11
  core: 18
  charge: 0.0
  file: /usr/share/gpaw-setups/Cu.PBE.gz
  cutoffs: 1.06(comp), 2.06(filt), 2.43(core), lmax=2
  valence states:
                energy  radius
    4s(1.00)    -4.609   1.164
    4p(0.00)    -0.698   1.164
    3d(10.00)    -5.039   1.058
    *s          22.603   1.164
    *p          26.513   1.164
    *d          22.172   1.058

  Using partial waves for Cu as LCAO basis

Reference energy: -90042.903682

Spin-paired calculation

Occupation numbers:
  Fermi-Dirac: width=0.1000 eV

Convergence criteria:
  Maximum total energy change: 0.0005 eV / electron
  Maximum integral of absolute density change: 0.0001 electrons
  Maximum integral of absolute eigenstate change: 4e-08 eV^2
  Maximum number of iterations: 333

Symmetries present (total): 4

  ( 1  0  0)  ( 0  0  1)  ( 0  0 -1)  (-1  0  0)
  ( 0  1  0)  ( 0  1  0)  ( 0 -1  0)  ( 0 -1  0)
  ( 0  0  1)  ( 1  0  0)  (-1  0  0)  ( 0  0 -1)

512 k-points: 8 x 8 x 8 Monkhorst-Pack grid
144 k-points in the irreducible part of the Brillouin zone
       k-points in crystal coordinates                weights
   0:     0.06250000   -0.43750000    0.06250000          2/512
   1:     0.06250000   -0.31250000    0.06250000          2/512
   2:     0.06250000   -0.18750000    0.06250000          2/512
   3:     0.06250000   -0.06250000    0.06250000          2/512
   4:     0.06250000    0.06250000   -0.06250000          4/512
   5:     0.06250000    0.06250000    0.06250000          2/512
   6:     0.06250000    0.18750000   -0.06250000          4/512
   7:     0.06250000    0.18750000    0.06250000          2/512
   8:     0.06250000    0.31250000   -0.06250000          4/512
   9:     0.06250000    0.31250000    0.06250000          2/512
          ...
 143:     0.43750000    0.43750000    0.43750000          2/512

Wave functions: Plane wave expansion
  Cutoff energy: 1100.000 eV
  Number of coefficients (min, max): 1934, 1981
  Pulay-stress correction: 0.000000 eV/Ang^3 (de/decut=0.000000)
  Using FFTW library
  ScaLapack parameters: grid=1x1, blocksize=None

Eigensolver
   Davidson(niter=1, smin=None, normalize=True)

Densities:
  Coarse grid: 16*32*16 grid
  Fine grid: 32*64*32 grid
  Total Charge: 0.000000

Density mixing:
  Method: separate
  Backend: pulay
  Linear mixing parameter: 0.05
  Mixing with 5 old densities
  Damping of long wave oscillations: 50

Hamiltonian:
  XC and Coulomb potentials evaluated on a 32*64*32 grid
  Using the PBE Exchange-Correlation functional

Total number of cores used: 1

Number of atoms: 2
Number of atomic orbitals: 18
Number of bands in calculation: 13
Bands to converge: occupied states only
Number of valence electrons: 22

... initialized

Initializing position-dependent things.

Density initialized from atomic densities
Creating initial wave functions:
  13 bands from LCAO basis set

         Cu

       Cu

Positions:
   0 Cu     0.000000    0.000000    0.000000    ( 0.0000,  0.0000,  0.0000)
   1 Cu     0.000000    1.810000    1.810000    ( 0.0000,  0.0000,  0.0000)

Unit cell:
           periodic     x           y           z      points  spacing
  1. axis:    yes    1.810000    1.810000    0.000000    16     0.1306
  2. axis:    yes    0.000000    3.620000    3.620000    32     0.1306
  3. axis:    yes    1.810000    0.000000    1.810000    16     0.1306

  Lengths:   2.559727   5.119453   2.559727
  Angles:   60.000000  60.000000  60.000000

Effective grid spacing dv^(1/3) = 0.1425

                     log10-error:    total        iterations:
           time      wfs    density  energy       fermi  poisson
iter:   1  09:35:21  +1.16   +inf    -9.151020    3
iter:   2  09:35:28  +0.39   +inf    -9.282494    3
iter:   3  09:35:35  -0.47   +inf    -9.316257    2
iter:   4  09:35:43  +0.10  -1.18    -8.579131    31
iter:   5  09:35:51  +0.92  -1.27    -7.411295    31
iter:   6  09:36:01  -0.49  -1.74    -7.519113    4
iter:   7  09:36:10  +0.26  -1.87    -7.420362    4
iter:   8  09:36:19  -1.26  -2.41    -7.419990    3
iter:   9  09:36:28  -2.20  -2.66    -7.421939    3
iter:  10  09:36:39  -2.44  -2.45    -7.419755    3
iter:  11  09:36:46  -2.06  -2.62    -7.418132    3
iter:  12  09:36:55  -3.16  -3.77    -7.418216    2
iter:  13  09:37:05  -3.99  -3.58    -7.418211    2
iter:  14  09:37:15  -4.05  -3.09    -7.418235    2
iter:  15  09:37:23  -5.15  -3.79    -7.418229    2
iter:  16  09:37:31  -4.92  -3.53    -7.418236    2
iter:  17  09:37:39  -3.87  -3.48    -7.418311    2
iter:  18  09:37:46  -3.05  -3.31    -7.418193    3
iter:  19  09:37:53  -4.32  -3.83    -7.418230    2
iter:  20  09:38:03  -5.40  -3.81    -7.418227    2
iter:  21  09:38:14  -4.34  -3.81    -7.418214    2
iter:  22  09:38:23  -5.36  -3.62    -7.418223    2
iter:  23  09:38:36  -3.89  -3.54    -7.418197    2
iter:  24  09:38:46  -4.81  -4.00    -7.418196    2
iter:  25  09:38:55  -4.20  -4.08    -7.418197    2
iter:  26  09:39:03  -4.40  -4.09    -7.418199    2
iter:  27  09:39:13  -5.56  -4.39    -7.418199    2
iter:  28  09:39:21  -5.50  -4.44    -7.418198    2
iter:  29  09:39:28  -7.33  -4.59    -7.418198    1
iter:  30  09:39:36  -6.86  -4.70    -7.418198    2
iter:  31  09:39:43  -6.13  -4.76    -7.418197    2
iter:  32  09:39:50  -6.78  -4.74    -7.418197    2
iter:  33  09:39:56  -8.36  -4.80    -7.418197    1

Converged after 33 iterations.

Dipole moment: (0.000000, -0.000000, -0.000000) |e|*Ang

Energy contributions relative to reference atoms: (reference = -90042.903682)

Kinetic:        -25.889257
Potential:      +20.322774
External:        +0.000000
XC:              -2.028430
Entropy (-ST):   -0.018150
Local:           +0.185791
Free energy:     -7.427272
Extrapolated:    -7.418197

Fermi level: 8.02542

Warning: Showing only first 2 kpts
 Kpt  Band  Eigenvalues  Occupancy
  0     9      5.84692    0.00781
  0    10      6.00726    0.00781
  0    11      6.01193    0.00781
  0    12     20.01774    0.00000

  1     9      5.89543    0.00781
  1    10      5.89744    0.00781
  1    11      6.20219    0.00781
  1    12     18.07043    0.00000

Writing to Cu-fcc.gpw (mode='')