User:   rasmus@AsusN550
Date:   Tue Oct 16 16:02:07 2018
Arch:   x86_64
Pid:    13264
Python: 3.6.3
gpaw:   /home/rasmus/anaconda3/lib/python3.6/site-packages/gpaw
_gpaw:  /home/rasmus/anaconda3/lib/python3.6/site-packages/
        _gpaw.cpython-36m-x86_64-linux-gnu.so
ase:    /home/rasmus/.local/lib/python3.6/site-packages/ase (version 3.16.2)
numpy:  /home/rasmus/.local/lib/python3.6/site-packages/numpy (version 1.15.1)
scipy:  /home/rasmus/.local/lib/python3.6/site-packages/scipy (version 1.1.0)
units:  Angstrom and eV
cores:  1

Input parameters:
  kpts: [8 8 8]
  mode: {ecut: 600.0,
         name: pw}
  nbands: -2
  occupations: {name: fermi-dirac,
                width: 0.1}
  xc: PBE

System changes: positions, numbers, cell, pbc, initial_charges, initial_magmoms

Initialize ...

Cu-setup:
  name: Copper
  id: f1c4d45d90492f1bbfdcb091e8418fdf
  Z: 29
  valence: 11
  core: 18
  charge: 0.0
  file: /usr/share/gpaw-setups/Cu.PBE.gz
  cutoffs: 1.06(comp), 2.06(filt), 2.43(core), lmax=2
  valence states:
                energy  radius
    4s(1.00)    -4.609   1.164
    4p(0.00)    -0.698   1.164
    3d(10.00)    -5.039   1.058
    *s          22.603   1.164
    *p          26.513   1.164
    *d          22.172   1.058

  Using partial waves for Cu as LCAO basis

Reference energy: -90042.903682

Spin-paired calculation

Occupation numbers:
  Fermi-Dirac: width=0.1000 eV

Convergence criteria:
  Maximum total energy change: 0.0005 eV / electron
  Maximum integral of absolute density change: 0.0001 electrons
  Maximum integral of absolute eigenstate change: 4e-08 eV^2
  Maximum number of iterations: 333

Symmetries present (total): 4

  ( 1  0  0)  ( 1  0  0)  (-1  0  0)  (-1  0  0)
  ( 0  1  0)  ( 0  0  1)  ( 0  0 -1)  ( 0 -1  0)
  ( 0  0  1)  ( 0  1  0)  ( 0 -1  0)  ( 0  0 -1)

512 k-points: 8 x 8 x 8 Monkhorst-Pack grid
144 k-points in the irreducible part of the Brillouin zone
       k-points in crystal coordinates                weights
   0:     0.06250000   -0.43750000   -0.43750000          2/512
   1:     0.06250000   -0.31250000   -0.43750000          4/512
   2:     0.06250000   -0.31250000   -0.31250000          2/512
   3:     0.06250000   -0.18750000   -0.43750000          4/512
   4:     0.06250000   -0.18750000   -0.31250000          4/512
   5:     0.06250000   -0.18750000   -0.18750000          2/512
   6:     0.06250000   -0.06250000   -0.43750000          4/512
   7:     0.06250000   -0.06250000   -0.31250000          4/512
   8:     0.06250000   -0.06250000   -0.18750000          4/512
   9:     0.06250000   -0.06250000   -0.06250000          2/512
          ...
 143:     0.43750000    0.43750000    0.43750000          2/512

Wave functions: Plane wave expansion
  Cutoff energy: 600.000 eV
  Number of coefficients (min, max): 2063, 2099
  Pulay-stress correction: 0.000000 eV/Ang^3 (de/decut=0.000000)
  Using FFTW library
  ScaLapack parameters: grid=1x1, blocksize=None

Eigensolver
   Davidson(niter=1, smin=None, normalize=True)

Densities:
  Coarse grid: 35*16*16 grid
  Fine grid: 70*32*32 grid
  Total Charge: 0.000000

Density mixing:
  Method: separate
  Backend: pulay
  Linear mixing parameter: 0.05
  Mixing with 5 old densities
  Damping of long wave oscillations: 50

Hamiltonian:
  XC and Coulomb potentials evaluated on a 70*32*32 grid
  Using the PBE Exchange-Correlation functional

Total number of cores used: 1

Number of atoms: 2
Number of atomic orbitals: 18
Number of bands in calculation: 13
Bands to converge: occupied states only
Number of valence electrons: 22

... initialized

Initializing position-dependent things.

Density initialized from atomic densities
Creating initial wave functions:
  13 bands from LCAO basis set

               Cu
       Cu

Positions:
   0 Cu     0.000000    0.000000    0.000000    ( 0.0000,  0.0000,  0.0000)
   1 Cu     2.500000    2.500000    0.000000    ( 0.0000,  0.0000,  0.0000)

Unit cell:
           periodic     x           y           z      points  spacing
  1. axis:    yes    5.000000    5.000000    0.000000    35     0.1650
  2. axis:    yes    2.500000    0.000000    2.500000    16     0.1804
  3. axis:    yes    0.000000    2.500000    2.500000    16     0.1804

  Lengths:   7.071068   3.535534   3.535534
  Angles:   60.000000  60.000000  60.000000

Effective grid spacing dv^(1/3) = 0.1911

                     log10-error:    total        iterations:
           time      wfs    density  energy       fermi  poisson
iter:   1  16:02:20  -0.03   +inf    -4.029102    3
iter:   2  16:02:26  -1.08   +inf    -4.035054    2
iter:   3  16:02:32  -2.23   +inf    -4.036151    2
iter:   4  16:02:40  -0.59  -1.37    -3.810375    3
iter:   5  16:02:47  -0.18  -1.47    -3.610110    29
iter:   6  16:02:54  +0.02  -1.64    -3.835555    31
iter:   7  16:03:01  +0.39  -1.67    -3.628280    3
iter:   8  16:03:08  -2.40  -2.19    -3.632906    3
iter:   9  16:03:16  -3.04  -2.13    -3.632049    3
iter:  10  16:03:23  -1.25  -2.28    -3.622273    2
iter:  11  16:03:32  -2.52  -2.18    -3.619867    3
iter:  12  16:03:39  -3.46  -2.51    -3.619871    3
iter:  13  16:03:47  -3.10  -2.79    -3.619788    2
iter:  14  16:03:56  -4.40  -3.17    -3.619741    2
iter:  15  16:04:04  -3.32  -3.23    -3.619576    2
iter:  16  16:04:13  -4.51  -3.50    -3.619586    2
iter:  17  16:04:19  -4.56  -3.51    -3.619597    2
iter:  18  16:04:27  -5.37  -3.60    -3.619595    2
iter:  19  16:04:33  -3.93  -3.58    -3.619638    2
iter:  20  16:04:40  -4.43  -3.63    -3.619631    2
iter:  21  16:04:46  -5.83  -4.16    -3.619634    2
iter:  22  16:04:53  -4.72  -4.01    -3.619621    2
iter:  23  16:05:01  -6.47  -4.71    -3.619619    2
iter:  24  16:05:08  -5.97  -4.75    -3.619621    2
iter:  25  16:05:15  -7.21  -4.71    -3.619621    1
iter:  26  16:05:23  -5.88  -4.70    -3.619624    2
iter:  27  16:05:30  -5.69  -4.53    -3.619621    2
iter:  28  16:05:37  -7.22  -5.00    -3.619621    1
iter:  29  16:05:44  -6.21  -4.99    -3.619619    2
iter:  30  16:05:52  -6.70  -5.26    -3.619620    2
iter:  31  16:05:59  -8.59  -5.99    -3.619620    1

Converged after 31 iterations.

Dipole moment: (-0.000000, -0.000000, -0.000000) |e|*Ang

Energy contributions relative to reference atoms: (reference = -90042.903682)

Kinetic:        -17.423302
Potential:      +12.169596
External:        +0.000000
XC:              +1.694823
Entropy (-ST):   -0.030982
Local:           -0.045246
Free energy:     -3.635111
Extrapolated:    -3.619620

Fermi level: 0.30813

Warning: Showing only first 2 kpts
 Kpt  Band  Eigenvalues  Occupancy
  0     9     -0.76118    0.00781
  0    10      0.28738    0.00431
  0    11      1.40665    0.00000
  0    12      2.16599    0.00000

  1     9     -0.77589    0.01562
  1    10      0.01036    0.01487
  1    11      0.40771    0.00422
  1    12      3.34004    0.00000

Forces in eV/Ang:
  0 Cu    0.00000    0.00000    0.00000
  1 Cu    0.00000    0.00000    0.00000