User:   rasmus@AsusN550
Date:   Mon Sep 17 15:39:44 2018
Arch:   x86_64
Pid:    13074
Python: 3.6.3
gpaw:   /home/rasmus/anaconda3/lib/python3.6/site-packages/gpaw
_gpaw:  /home/rasmus/anaconda3/lib/python3.6/site-packages/
        _gpaw.cpython-36m-x86_64-linux-gnu.so
ase:    /home/rasmus/.local/lib/python3.6/site-packages/ase (version 3.16.2)
numpy:  /home/rasmus/.local/lib/python3.6/site-packages/numpy (version 1.15.1)
scipy:  /home/rasmus/.local/lib/python3.6/site-packages/scipy (version 1.1.0)
units:  Angstrom and eV
cores:  1

Input parameters:
  h: 0.2
  kpts: [20 20 20]
  mode: {ecut: 400.0,
         name: pw}
  nbands: 20
  occupations: {name: fermi-dirac,
                width: 0.1}
  xc: PBE

System changes: positions, numbers, cell, pbc, initial_charges, initial_magmoms

Initialize ...

Si-setup:
  name: Silicon
  id: ee77bee481871cc2cb65ac61239ccafa
  Z: 14
  valence: 4
  core: 10
  charge: 0.0
  file: /usr/share/gpaw-setups/Si.PBE.gz
  cutoffs: 1.06(comp), 1.86(filt), 2.06(core), lmax=2
  valence states:
                energy  radius
    3s(2.00)   -10.812   1.058
    3p(2.00)    -4.081   1.058
    *s          16.399   1.058
    *p          23.130   1.058
    *d           0.000   1.058

  Using partial waves for Si as LCAO basis

Reference energy: -15772.688500

Spin-paired calculation

Occupation numbers:
  Fermi-Dirac: width=0.1000 eV

Convergence criteria:
  Maximum total energy change: 0.0005 eV / electron
  Maximum integral of absolute density change: 0.0001 electrons
  Maximum integral of absolute eigenstate change: 4e-08 eV^2
  Maximum number of iterations: 333

Symmetries present (total): 24

  ( 1  0  0)  ( 1  0  0)  ( 1  0 -1)  ( 1  0 -1)  ( 1 -1  0)  ( 1 -1  0)
  ( 0  1  0)  ( 0  0  1)  ( 0  1 -1)  ( 0  0 -1)  ( 0 -1  1)  ( 0 -1  0)
  ( 0  0  1)  ( 0  1  0)  ( 0  0 -1)  ( 0  1 -1)  ( 0 -1  0)  ( 0 -1  1)

[...]

  ( 0  0 -1)  ( 0  0 -1)  ( 0 -1  1)  ( 0 -1  1)  ( 0 -1  0)  ( 0 -1  0)
  ( 1  0 -1)  ( 0  1 -1)  ( 1 -1  0)  ( 0 -1  0)  ( 1 -1  0)  ( 0 -1  1)
  ( 0  1 -1)  ( 1  0 -1)  ( 0 -1  0)  ( 1 -1  0)  ( 0 -1  1)  ( 1 -1  0)

  (-1  1  0)  (-1  1  0)  (-1  0  1)  (-1  0  1)  (-1  0  0)  (-1  0  0)
  (-1  0  1)  (-1  0  0)  (-1  1  0)  (-1  0  0)  (-1  1  0)  (-1  0  1)
  (-1  0  0)  (-1  0  1)  (-1  0  0)  (-1  1  0)  (-1  0  1)  (-1  1  0)
Note: your k-points are not as symmetric as your crystal!

8000 k-points: 20 x 20 x 20 Monkhorst-Pack grid
770 k-points in the irreducible part of the Brillouin zone
       k-points in crystal coordinates                weights
   0:     0.02500000    0.02500000   -0.02500000          6/8000
   1:     0.02500000    0.02500000    0.02500000          2/8000
   2:     0.07500000   -0.02500000   -0.02500000          6/8000
   3:     0.07500000    0.02500000   -0.07500000         12/8000
   4:     0.07500000    0.02500000   -0.02500000         12/8000
   5:     0.07500000    0.02500000    0.02500000          6/8000
   6:     0.07500000    0.07500000   -0.07500000          6/8000
   7:     0.07500000    0.07500000   -0.02500000          6/8000
   8:     0.07500000    0.07500000    0.02500000          6/8000
   9:     0.07500000    0.07500000    0.07500000          2/8000
          ...
 769:     0.47500000    0.47500000    0.47500000          2/8000

Wave functions: Plane wave expansion
  Cutoff energy: 400.000 eV
  Number of coefficients (min, max): 725, 753
  Pulay-stress correction: 0.000000 eV/Ang^3 (de/decut=0.000000)
  Using FFTW library
  ScaLapack parameters: grid=1x1, blocksize=None

Eigensolver
   Davidson(niter=1, smin=None, normalize=True)

Densities:
  Coarse grid: 16*16*16 grid
  Fine grid: 32*32*32 grid
  Total Charge: 0.000000

Density mixing:
  Method: separate
  Backend: pulay
  Linear mixing parameter: 0.05
  Mixing with 5 old densities
  Damping of long wave oscillations: 50

Hamiltonian:
  XC and Coulomb potentials evaluated on a 32*32*32 grid
  Using the PBE Exchange-Correlation functional

Total number of cores used: 1

Number of atoms: 2
Number of atomic orbitals: 8
Number of bands in calculation: 20
Bands to converge: occupied states only
Number of valence electrons: 8

... initialized

Initializing position-dependent things.

Density initialized from atomic densities
Creating initial wave functions:
  8 bands from LCAO basis set
  12 bands from random numbers

           Si

       Si

Positions:
   0 Si     0.000000    0.000000    0.000000    ( 0.0000,  0.0000,  0.0000)
   1 Si     1.364750    1.364750    1.364750    ( 0.0000,  0.0000,  0.0000)

Unit cell:
           periodic     x           y           z      points  spacing
  1. axis:    yes    0.000000    2.729500    2.729500    16     0.1970
  2. axis:    yes    2.729500    0.000000    2.729500    16     0.1970
  3. axis:    yes    2.729500    2.729500    0.000000    16     0.1970

  Lengths:   3.860096   3.860096   3.860096
  Angles:   60.000000  60.000000  60.000000

Effective grid spacing dv^(1/3) = 0.2149

                     log10-error:    total        iterations:
           time      wfs    density  energy       fermi  poisson
iter:   1  15:40:47  +4.40   +inf   -10.787520    5
iter:   2  15:41:14  -0.12   +inf   -10.886747    3
iter:   3  15:41:41  -1.47   +inf   -10.889876    2
iter:   4  15:42:11  -2.76  -0.79   -10.876387    2
iter:   5  15:42:38  -1.10  -0.81   -10.799462    5
iter:   6  15:43:07  -2.14  -1.61   -10.795145    3
iter:   7  15:43:35  -2.73  -1.72   -10.794851    2
iter:   8  15:44:03  -3.94  -2.82   -10.794853    2
iter:   9  15:44:33  -4.43  -2.86   -10.794906    2
iter:  10  15:45:04  -4.89  -2.84   -10.794873    2
iter:  11  15:45:33  -5.72  -3.98   -10.794873    1
iter:  12  15:45:59  -6.65  -4.28   -10.794874    1
iter:  13  15:46:29  -7.25  -4.32   -10.794873    1
iter:  14  15:46:56  -7.90  -4.32   -10.794873    1

Converged after 14 iterations.

Dipole moment: (-2.916093, -2.916093, -2.916093) |e|*Ang

Energy contributions relative to reference atoms: (reference = -15772.688500)

Kinetic:        +14.059278
Potential:      -12.479066
External:        +0.000000
XC:             -12.352183
Entropy (-ST):   -0.000646
Local:           -0.022580
Free energy:    -10.795196
Extrapolated:   -10.794873

Fermi level: 5.45842

Warning: Showing only first 2 kpts
 Kpt  Band  Eigenvalues  Occupancy
  0     2      5.06062    0.00147
  0     3      5.10565    0.00146
  0     4      7.68517    0.00000
  0     5      7.83131    0.00000

  1     2      5.14909    0.00048
  1     3      5.14909    0.00048
  1     4      7.73592    0.00000
  1     5      7.73592    0.00000

Writing to silicon.gpw (mode='all')